c parsing input formula with 30 variables and 81 clauses
c finished parsing
c detected empty clause; start verification via backward checking
c 81 of 81 clauses in core                            
c 129 of 170 lemmas in core using 1214 resolution steps
c 20 RAT lemmas in core; 0 redundant literals in core lemmas
s VERIFIED
c verification time: 0.098 seconds
